(set-logic HORN)
(set-info :source |
    Benchmark: C_VC
    Output by Princess (http://www.philipp.ruemmer.org/princess.shtml)
|)
(set-info :status unknown)
(declare-fun inv_main2 (Int) Bool)
(declare-fun inv_main3 (Int) Bool)
(declare-fun inv_main5 (Int) Bool)
(assert (inv_main2 0 ) )
(assert true )
(assert (forall ((var0 Int)) (or (not (inv_main5 var0 ) ) (inv_main2 var0 ) ) ) )
(assert true )
(assert (forall ((var0 Int)) (or (not (inv_main2 var0 ) ) (inv_main5 0 ) ) ) )
(assert (forall ((var0 Int)) (not (and (inv_main5 var0 ) (not (= var0 0 ) ) ) ) ) )
(assert (forall ((var0 Int)) (not (and (inv_main3 var0 ) (= var0 0 ) ) ) ) )
(check-sat)
